c uprop, v00.0, 
c reading from data/prog904.c.cnf
c done reading: 0.00366
p cnf 93 320
-45 -59 0
45 59 0
-52 -70 0
52 70 0
-56 -57 0
56 57 0
-62 -66 0
62 66 0
-53 -69 0
53 69 0
-48 -64 0
48 64 0
-42 -50 0
42 50 0
-40 69 0
40 -69 0
-38 -69 0
38 69 0
36 -45 -48 0
36 -40 -48 0
36 -40 -45 0
-36 45 48 0
-36 40 48 0
-36 40 45 0
-35 -36 48 0
-35 -36 45 0
-35 -36 40 0
35 36 -48 0
35 36 -45 0
35 36 -40 0
35 -40 -45 -48 0
-35 40 45 48 0
34 -50 -52 0
34 -36 -50 0
34 -36 -52 0
-34 50 52 0
-34 36 50 0
-34 36 52 0
-33 -34 50 0
-33 -34 52 0
-33 -34 36 0
33 34 -50 0
33 34 -52 0
33 34 -36 0
33 -36 -50 -52 0
-33 36 50 52 0
-32 56 0
-32 34 0
32 -34 -56 0
34 -56 0
-34 56 0
-31 62 0
-31 32 0
31 -32 -62 0
32 -62 0
-32 62 0
-30 69 0
-30 31 0
30 -31 -69 0
31 -69 0
-31 69 0
-29 48 0
-29 30 0
29 -30 -48 0
30 -48 0
-30 48 0
-29 -50 0
29 -50 0
-29 50 0
-45 -63 0
45 63 0
-46 -52 0
46 52 0
-26 -56 0
26 56 0
-23 -62 0
23 62 0
-20 -38 0
20 38 0
-35 -72 0
35 72 0
-33 -75 0
33 75 0
-28 -76 0
-76 -78 0
28 76 78 0
28 78 -79 0
-28 -78 -79 0
-28 78 79 0
28 -78 79 0
76 -80 0
-25 -80 0
25 -76 80 0
25 -76 -81 0
-25 76 -81 0
25 76 81 0
-25 -76 81 0
-60 80 0
-60 -83 0
60 -80 83 0
-80 83 -84 0
80 -83 -84 0
80 83 84 0
-80 -83 84 0
60 -71 0
-22 -71 0
22 -60 71 0
22 -60 -85 0
-22 60 -85 0
22 60 85 0
-22 -60 85 0
-58 71 0
-58 -87 0
58 -71 87 0
-71 87 -88 0
71 -87 -88 0
71 87 88 0
-71 -87 88 0
58 -67 0
-67 -74 0
-58 67 74 0
-58 74 -89 0
58 -74 -89 0
58 74 89 0
-58 -74 89 0
-54 67 0
-54 -91 0
54 -67 91 0
-67 91 -92 0
67 -91 -92 0
67 91 92 0
-67 -91 92 0
22 -65 0
28 -65 0
-22 -28 65 0
-22 -28 -93 0
22 28 -93 0
-22 28 93 0
22 -28 93 0
43 -78 -87 0
43 -65 -87 0
43 -65 -78 0
-43 78 87 0
-43 65 87 0
-43 65 78 0
-41 -43 87 0
-41 -43 78 0
-41 -43 65 0
41 43 -87 0
41 43 -78 0
41 43 -65 0
41 -65 -78 -87 0
-41 65 78 87 0
-25 39 -74 0
39 -43 -74 0
-25 39 -43 0
25 -39 74 0
-39 43 74 0
25 -39 43 0
-37 -39 74 0
25 -37 -39 0
-37 -39 43 0
37 39 -74 0
-25 37 39 0
37 39 -43 0
-25 37 -43 -74 0
25 -37 43 74 0
19 -83 -91 0
19 -39 -91 0
19 -39 -83 0
-19 83 91 0
-19 39 91 0
-19 39 83 0
19 -91 0
19 -83 0
19 -39 0
-39 -83 -91 0
-18 22 0
-18 19 0
18 -19 -22 0
19 -22 0
-19 22 0
-17 87 0
-17 18 0
17 -18 -87 0
18 -87 0
-18 87 0
-16 74 0
-16 17 0
16 -17 -74 0
17 -74 0
-17 74 0
-16 -91 0
16 -91 0
-16 91 0
-15 -28 0
-15 -78 0
15 28 78 0
-14 28 78 0
-14 -28 -78 0
14 -28 78 0
14 28 -78 0
-13 15 0
-13 -25 0
13 -15 25 0
-12 -15 25 0
-12 15 -25 0
12 15 25 0
12 -15 -25 0
-11 13 0
-11 -83 0
11 -13 83 0
-10 -13 83 0
-10 13 -83 0
10 13 83 0
10 -13 -83 0
-9 11 0
-9 -93 0
9 -11 93 0
-8 -11 93 0
-8 11 -93 0
8 11 93 0
8 -11 -93 0
-7 9 0
-7 -41 0
7 -9 41 0
-6 -9 41 0
-6 9 -41 0
6 9 41 0
6 -9 -41 0
7 -44 0
-37 -44 0
-7 37 44 0
-7 37 -51 0
7 -37 -51 0
7 37 51 0
-7 -37 51 0
44 -55 0
-44 55 0
-44 -61 0
44 61 0
55 -68 0
-55 68 0
-47 -55 0
47 55 0
-49 68 0
49 -68 0
-27 -68 0
27 68 0
49 -77 0
-49 77 0
-24 -49 0
24 49 0
77 -82 0
-77 82 0
-21 -77 0
21 77 0
82 -86 0
-82 86 0
-73 -82 0
73 82 0
45 -90 0
28 -90 0
-28 -45 90 0
-28 -45 0
28 45 0
5 -52 -78 0
5 -52 -90 0
5 -78 -90 0
-5 52 78 0
-5 52 90 0
-5 78 90 0
5 -52 0
5 -78 0
5 -90 0
-52 -78 -90 0
4 -25 -56 0
4 -5 -56 0
4 -5 -25 0
-4 25 56 0
-4 5 56 0
-4 5 25 0
4 -56 0
4 -25 0
4 -5 0
-5 -25 -56 0
3 -62 -83 0
3 -4 -62 0
3 -4 -83 0
-3 62 83 0
-3 4 62 0
-3 4 83 0
-3 62 0
-3 83 0
-3 4 0
4 62 83 0
2 -38 -93 0
2 -3 -38 0
2 -3 -93 0
-2 38 93 0
-2 3 38 0
-2 3 93 0
2 -38 0
2 -93 0
2 -3 0
-3 -38 -93 0
1 -35 -41 0
1 -2 -35 0
1 -2 -41 0
-1 35 41 0
-1 2 35 0
-1 2 41 0
-1 35 0
-1 41 0
-1 2 0
2 35 41 0
-33 -37 0
-1 -33 0
-1 -37 0
1 33 37 0
